%%%mzn-stat: initTime=0.004048222
%%%mzn-stat: objective=479
%%%mzn-stat: nodes=6738
%%%mzn-stat: restarts=0
%%%mzn-stat: peakDepth=168
%%%mzn-stat: solveTime=1.599160331
%%%mzn-stat: variables=492
%%%mzn-stat: propagators=310
%%%mzn-stat: failures=6036
%%%mzn-stat: propagations=230109
%%%mzn-stat: nogoods=6036
%%%mzn-stat: AverageConflictSize=30.581179589131875
%%%mzn-stat: NumUnitNogoodsLearned=478
%%%mzn-stat: AverageLearnedNogoodLength=33.11514247846256
%%%mzn-stat: AverageBacktrackAmount=0
%%%mzn-stat: AverageLbd=8.974320742213386
%%%mzn-stat-end
maxleg = 479;
succ = array1d(1..50,[23, 33, 28, 26, 25, 37, 41, 32, 39, 36, 8, 14, 17, 18, 4, 49, 50, 48, 30, 13, 38, 47, 46, 35, 2, 19, 29, 34, 21, 27, 16, 42, 24, 7, 10, 31, 12, 20, 3, 11, 15, 1, 44, 9, 40, 6, 45, 5, 43, 22]);
% time elapsed: 3.30 s
----------
==========
% time elapsed: 3.30 s
%%%mzn-stat: initTime=0.004048222
%%%mzn-stat: objective=479
%%%mzn-stat: nodes=6738
%%%mzn-stat: restarts=0
%%%mzn-stat: peakDepth=168
%%%mzn-stat: solveTime=1.599164632
%%%mzn-stat: variables=492
%%%mzn-stat: propagators=310
%%%mzn-stat: failures=6036
%%%mzn-stat: propagations=230109
%%%mzn-stat: nogoods=6036
%%%mzn-stat: AverageConflictSize=30.581179589131875
%%%mzn-stat: NumUnitNogoodsLearned=478
%%%mzn-stat: AverageLearnedNogoodLength=33.11514247846256
%%%mzn-stat: AverageBacktrackAmount=0
%%%mzn-stat: AverageLbd=8.974320742213386
%%%mzn-stat-end
